sat
(:max-memory         17.95
 :memory             17.95
 :nlsat-propagations 5
 :nlsat-stages       5
 :num-allocs         18301
 :rlimit-count       1055
 :time               0.00
 :total-time         0.01)
